44
1 0 15
2 0 34
2 1 13
3 0 12
3 1 17
3 2 26
4 0 25
4 1 28
4 2 15
4 3 22
5 0 22
5 1 1
5 2 27
5 3 14
5 4 35
6 0 2
6 1 31
6 2 6
6 3 11
6 4 24
6 5 5
7 0 26
7 1 14
7 2 25
7 3 21
7 4 19
7 5 21
7 6 1
8 0 28
8 1 22
8 2 14
8 3 7
8 4 2
8 5 36
8 6 26
8 7 25
9 0 20
9 1 35
9 2 14
9 3 5
9 4 6
9 5 6
9 6 32
9 7 1
9 8 11
10 0 6
10 1 26
10 2 16
10 3 1
10 4 36
10 5 32
10 6 22
10 7 26
10 8 8
10 9 31
11 0 10
11 1 31
11 2 32
11 3 13
11 4 31
11 5 5
11 6 29
11 7 4
11 8 4
11 9 1
11 10 8
12 0 32
12 1 32
12 2 34
12 3 7
12 4 30
12 5 32
12 6 34
12 7 22
12 8 19
12 9 19
12 10 7
12 11 6
13 0 33
13 1 34
13 2 13
13 3 21
13 4 15
13 5 32
13 6 23
13 7 22
13 8 1
13 9 5
13 10 10
13 11 7
13 12 20
14 0 28
14 1 26
14 2 8
14 3 30
14 4 36
14 5 15
14 6 2
14 7 32
14 8 29
14 9 17
14 10 30
14 11 4
14 12 22
14 13 12
15 0 1
15 1 14
15 2 12
15 3 7
15 4 31
15 5 1
15 6 32
15 7 34
15 8 20
15 9 23
15 10 36
15 11 27
15 12 17
15 13 35
15 14 19
16 0 27
16 1 26
16 2 9
16 3 9
16 4 2
16 5 26
16 6 28
16 7 6
16 8 20
16 9 27
16 10 26
16 11 12
16 12 35
16 13 18
16 14 15
16 15 14
17 0 32
17 1 11
17 2 12
17 3 14
17 4 12
17 5 15
17 6 3
17 7 33
17 8 24
17 9 11
17 10 17
17 11 34
17 12 23
17 13 16
17 14 34
17 15 22
17 16 30
18 0 16
18 1 28
18 2 14
18 3 23
18 4 26
18 5 30
18 6 23
18 7 10
18 8 10
18 9 29
18 10 6
18 11 19
18 12 31
18 13 2
18 14 21
18 15 17
18 16 36
18 17 27
19 0 24
19 1 12
19 2 15
19 3 34
19 4 19
19 5 19
19 6 29
19 7 14
19 8 30
19 9 28
19 10 4
19 11 18
19 12 3
19 13 36
19 14 32
19 15 2
19 16 27
19 17 5
19 18 35
20 0 33
20 1 26
20 2 3
20 3 1
20 4 7
20 5 22
20 6 27
20 7 12
20 8 34
20 9 22
20 10 19
20 11 36
20 12 24
20 13 32
20 14 25
20 15 27
20 16 20
20 17 1
20 18 35
20 19 11
21 0 19
21 1 28
21 2 28
21 3 25
21 4 33
21 5 9
21 6 1
21 7 27
21 8 29
21 9 33
21 10 27
21 11 12
21 12 2
21 13 30
21 14 22
21 15 21
21 16 29
21 17 9
21 18 6
21 19 33
21 20 30
22 0 24
22 1 14
22 2 13
22 3 3
22 4 11
22 5 5
22 6 8
22 7 9
22 8 8
22 9 4
22 10 7
22 11 5
22 12 24
22 13 26
22 14 32
22 15 16
22 16 17
22 17 3
22 18 32
22 19 33
22 20 19
22 21 17
23 0 21
23 1 35
23 2 13
23 3 29
23 4 21
23 5 26
23 6 32
23 7 11
23 8 33
23 9 18
23 10 23
23 11 19
23 12 3
23 13 9
23 14 21
23 15 27
23 16 17
23 17 1
23 18 8
23 19 36
23 20 26
23 21 29
23 22 30
24 0 19
24 1 23
24 2 20
24 3 9
24 4 7
24 5 33
24 6 21
24 7 33
24 8 13
24 9 6
24 10 2
24 11 13
24 12 5
24 13 13
24 14 20
24 15 8
24 16 4
24 17 29
24 18 6
24 19 26
24 20 28
24 21 33
24 22 36
24 23 16
25 0 12
25 1 26
25 2 31
25 3 9
25 4 35
25 5 30
25 6 24
25 7 36
25 8 2
25 9 30
25 10 8
25 11 29
25 12 17
25 13 3
25 14 28
25 15 32
25 16 29
25 17 35
25 18 31
25 19 15
25 20 3
25 21 32
25 22 23
25 23 23
25 24 10
26 0 34
26 1 23
26 2 12
26 3 27
26 4 1
26 5 34
26 6 17
26 7 27
26 8 19
26 9 34
26 10 13
26 11 30
26 12 33
26 13 29
26 14 35
26 15 18
26 16 9
26 17 7
26 18 33
26 19 11
26 20 3
26 21 13
26 22 22
26 23 33
26 24 7
26 25 11
27 0 11
27 1 8
27 2 14
27 3 11
27 4 1
27 5 12
27 6 14
27 7 26
27 8 32
27 9 2
27 10 35
27 11 29
27 12 1
27 13 3
27 14 20
27 15 33
27 16 12
27 17 10
27 18 20
27 19 15
27 20 13
27 21 24
27 22 7
27 23 14
27 24 26
27 25 27
27 26 25
28 0 17
28 1 8
28 2 20
28 3 34
28 4 32
28 5 31
28 6 20
28 7 12
28 8 8
28 9 18
28 10 6
28 11 24
28 12 15
28 13 16
28 14 19
28 15 13
28 16 25
28 17 32
28 18 34
28 19 16
28 20 11
28 21 10
28 22 1
28 23 16
28 24 8
28 25 20
28 26 8
28 27 12
29 0 35
29 1 17
29 2 29
29 3 26
29 4 28
29 5 29
29 6 34
29 7 10
29 8 5
29 9 28
29 10 32
29 11 35
29 12 23
29 13 10
29 14 2
29 15 21
29 16 9
29 17 23
29 18 19
29 19 21
29 20 12
29 21 1
29 22 30
29 23 17
29 24 23
29 25 22
29 26 6
29 27 34
29 28 22
30 0 9
30 1 36
30 2 18
30 3 31
30 4 15
30 5 21
30 6 24
30 7 24
30 8 1
30 9 25
30 10 26
30 11 26
30 12 12
30 13 36
30 14 11
30 15 26
30 16 13
30 17 6
30 18 32
30 19 18
30 20 15
30 21 12
30 22 25
30 23 17
30 24 17
30 25 13
30 26 16
30 27 30
30 28 24
30 29 19
31 0 2
31 1 36
31 2 17
31 3 10
31 4 15
31 5 30
31 6 12
31 7 26
31 8 22
31 9 27
31 10 34
31 11 7
31 12 8
31 13 30
31 14 7
31 15 34
31 16 28
31 17 27
31 18 14
31 19 26
31 20 8
31 21 20
31 22 28
31 23 10
31 24 7
31 25 1
31 26 4
31 27 18
31 28 14
31 29 15
31 30 23
32 0 27
32 1 6
32 2 4
32 3 5
32 4 36
32 5 20
32 6 31
32 7 23
32 8 23
32 9 32
32 10 31
32 11 32
32 12 31
32 13 32
32 14 17
32 15 7
32 16 13
32 17 4
32 18 16
32 19 13
32 20 10
32 21 30
32 22 3
32 23 21
32 24 4
32 25 27
32 26 16
32 27 11
32 28 35
32 29 14
32 30 32
32 31 7
33 0 28
33 1 27
33 2 9
33 3 1
33 4 7
33 5 30
33 6 16
33 7 31
33 8 25
33 9 33
33 10 21
33 11 3
33 12 17
33 13 25
33 14 22
33 15 3
33 16 27
33 17 1
33 18 8
33 19 17
33 20 1
33 21 10
33 22 15
33 23 12
33 24 8
33 25 36
33 26 34
33 27 32
33 28 13
33 29 12
33 30 32
33 31 15
33 32 36
34 0 8
34 1 21
34 2 17
34 3 3
34 4 16
34 5 30
34 6 24
34 7 25
34 8 36
34 9 14
34 10 20
34 11 12
34 12 15
34 13 24
34 14 14
34 15 28
34 16 2
34 17 20
34 18 31
34 19 6
34 20 11
34 21 29
34 22 35
34 23 36
34 24 11
34 25 29
34 26 28
34 27 20
34 28 27
34 29 19
34 30 16
34 31 23
34 32 25
34 33 13
35 0 4
35 1 19
35 2 23
35 3 12
35 4 18
35 5 32
35 6 2
35 7 34
35 8 31
35 9 24
35 10 9
35 11 20
35 12 5
35 13 18
35 14 12
35 15 5
35 16 14
35 17 36
35 18 22
35 19 24
35 20 24
35 21 2
35 22 23
35 23 25
35 24 30
35 25 35
35 26 18
35 27 25
35 28 12
35 29 33
35 30 27
35 31 12
35 32 26
35 33 7
35 34 18
36 0 20
36 1 14
36 2 20
36 3 17
36 4 16
36 5 30
36 6 33
36 7 25
36 8 7
36 9 22
36 10 23
36 11 13
36 12 9
36 13 17
36 14 12
36 15 23
36 16 33
36 17 19
36 18 19
36 19 8
36 20 32
36 21 23
36 22 30
36 23 24
36 24 13
36 25 31
36 26 15
36 27 9
36 28 32
36 29 36
36 30 32
36 31 25
36 32 26
36 33 27
36 34 2
36 35 30
37 0 30
37 1 18
37 2 33
37 3 11
37 4 23
37 5 8
37 6 34
37 7 28
37 8 1
37 9 27
37 10 29
37 11 8
37 12 7
37 13 16
37 14 12
37 15 14
37 16 20
37 17 10
37 18 15
37 19 8
37 20 28
37 21 8
37 22 12
37 23 4
37 24 17
37 25 12
37 26 28
37 27 11
37 28 36
37 29 6
37 30 6
37 31 25
37 32 3
37 33 25
37 34 7
37 35 17
37 36 15
38 0 7
38 1 16
38 2 7
38 3 25
38 4 1
38 5 36
38 6 22
38 7 6
38 8 33
38 9 18
38 10 15
38 11 3
38 12 2
38 13 14
38 14 32
38 15 29
38 16 32
38 17 29
38 18 36
38 19 24
38 20 19
38 21 29
38 22 22
38 23 25
38 24 5
38 25 16
38 26 14
38 27 20
38 28 34
38 29 13
38 30 8
38 31 29
38 32 15
38 33 23
38 34 33
38 35 32
38 36 32
38 37 33
39 0 2
39 1 31
39 2 23
39 3 14
39 4 5
39 5 11
39 6 14
39 7 1
39 8 34
39 9 6
39 10 12
39 11 4
39 12 12
39 13 26
39 14 25
39 15 28
39 16 28
39 17 20
39 18 33
39 19 15
39 20 28
39 21 7
39 22 6
39 23 10
39 24 35
39 25 2
39 26 6
39 27 33
39 28 26
39 29 35
39 30 21
39 31 4
39 32 23
39 33 32
39 34 21
39 35 1
39 36 33
39 37 32
39 38 17
40 0 22
40 1 32
40 2 28
40 3 31
40 4 1
40 5 27
40 6 25
40 7 34
40 8 29
40 9 27
40 10 3
40 11 9
40 12 34
40 13 4
40 14 29
40 15 22
40 16 13
40 17 9
40 18 29
40 19 33
40 20 27
40 21 26
40 22 9
40 23 30
40 24 2
40 25 2
40 26 24
40 27 18
40 28 13
40 29 11
40 30 15
40 31 7
40 32 21
40 33 11
40 34 1
40 35 13
40 36 1
40 37 7
40 38 24
40 39 8
41 0 21
41 1 36
41 2 28
41 3 5
41 4 14
41 5 26
41 6 17
41 7 15
41 8 32
41 9 24
41 10 9
41 11 7
41 12 35
41 13 1
41 14 8
41 15 18
41 16 14
41 17 18
41 18 31
41 19 30
41 20 21
41 21 31
41 22 32
41 23 27
41 24 32
41 25 24
41 26 36
41 27 2
41 28 24
41 29 17
41 30 7
41 31 2
41 32 19
41 33 10
41 34 18
41 35 26
41 36 35
41 37 29
41 38 23
41 39 22
41 40 12
42 0 18
42 1 16
42 2 6
42 3 5
42 4 23
42 5 36
42 6 15
42 7 8
42 8 9
42 9 19
42 10 20
42 11 10
42 12 32
42 13 31
42 14 22
42 15 8
42 16 2
42 17 27
42 18 14
42 19 28
42 20 6
42 21 17
42 22 12
42 23 7
42 24 15
42 25 21
42 26 32
42 27 4
42 28 11
42 29 18
42 30 26
42 31 17
42 32 20
42 33 20
42 34 23
42 35 26
42 36 6
42 37 17
42 38 9
42 39 12
42 40 23
42 41 17
43 0 27
43 1 32
43 2 13
43 3 29
43 4 4
43 5 14
43 6 34
43 7 26
43 8 23
43 9 28
43 10 13
43 11 23
43 12 4
43 13 18
43 14 3
43 15 11
43 16 9
43 17 20
43 18 21
43 19 13
43 20 24
43 21 31
43 22 35
43 23 10
43 24 25
43 25 15
43 26 22
43 27 22
43 28 6
43 29 21
43 30 23
43 31 17
43 32 24
43 33 31
43 34 18
43 35 11
43 36 14
43 37 16
43 38 2
43 39 30
43 40 33
43 41 36
43 42 16
